
Gurobi 11.0.1 (win64) logging started Mon May 13 14:45:36 2024

Set parameter LogFile to value "output/solver_log7.txt"
Gurobi Optimizer version 11.0.1 build v11.0.1rc0 (win64 - Windows 11.0 (22631.2))

CPU model: 11th Gen Intel(R) Core(TM) i7-1165G7 @ 2.80GHz, instruction set [SSE2|AVX|AVX2|AVX512]
Thread count: 4 physical cores, 8 logical processors, using up to 8 threads

Optimize a model with 1181 rows, 324 columns and 21843 nonzeros
Model fingerprint: 0x999e0cbb
Variable types: 88 continuous, 236 integer (236 binary)
Coefficient statistics:
  Matrix range     [4e-01, 1e+05]
  Objective range  [1e+00, 1e+02]
  Bounds range     [1e+00, 1e+00]
  RHS range        [1e-02, 1e+05]

User MIP start produced solution with objective 55688.8 (0.00s)
User MIP start produced solution with objective 55688.8 (0.00s)
Loaded user MIP start with objective 55688.8

Presolve removed 131 rows and 135 columns
Presolve time: 0.02s
Presolved: 1050 rows, 189 columns, 20764 nonzeros
Variable types: 81 continuous, 108 integer (106 binary)

Root relaxation: objective 5.631103e+04, 328 iterations, 0.01 seconds (0.03 work units)

    Nodes    |    Current Node    |     Objective Bounds      |     Work
 Expl Unexpl |  Obj  Depth IntInf | Incumbent    BestBd   Gap | It/Node Time

     0     0 56311.0285    0    2 55688.8260 56311.0285  1.12%     -    0s
H    0     0                    55884.201388 56311.0285  0.76%     -    0s
     0     0 56311.0285    0    2 55884.2014 56311.0285  0.76%     -    0s
*    0     0               0    56311.028527 56311.0285  0.00%     -    0s

Explored 1 nodes (1508 simplex iterations) in 0.27 seconds (0.39 work units)
Thread count was 8 (of 8 available processors)

Solution count 4: 56311 56311 55884.2 55688.8 

Optimal solution found (tolerance 1.00e-04)
Best objective 5.631102852677e+04, best bound 5.631102852677e+04, gap 0.0000%
